4 11 16 18 13 12 8 15 5 2 1 7 3 9 17 6 14 19 0 10  
4 11 16 18 13 12 8 15 5 2 1 6 14 17 19 3 0 10 7 9  
4 11 16 18 13 12 8 15 5 7 9 17 3 6 14 19 1 2 0 10  
4 11 18 5 16 3 8 15 13 12 7 9 1 2 17 6 14 19 0 10  
4 11 16 18 13 12 8 15 5 2 1 7 3 9 17 6 14 19 0 10  
4 11 16 18 13 1 8 15 5 19 12 7 14 17 2 3 6 9 10 0  
4 11 16 18 13 12 8 15 5 2 1 6 14 10 19 0 17 3 7 9  
4 11 16 18 13 12 8 15 5 7 9 17 3 6 14 19 1 2 0 10  
4 11 16 18 13 12 8 15 5 2 1 7 3 9 17 6 14 19 10 0  
4 11 16 18 13 12 8 15 5 2 1 7 9 17 3 6 14 19 10 0  
4 11 16 18 13 12 8 15 5 2 1 6 10 14 19 9 17 3 0 7  
4 11 16 18 13 12 8 15 5 2 1 6 14 10 19 0 17 3 7 9  
4 11 16 18 13 15 5 1 8 2 12 6 14 19 10 17 3 9 7 0  
